p cnf 21 153
1 2 3 4 5 6 7 0
8 9 10 11 12 13 14 0
15 16 17 18 19 20 21 0
-1 -3 0
-1 -10 0
-1 -17 0
-8 -3 0
-8 -10 0
-8 -17 0
-15 -3 0
-15 -10 0
-15 -17 0
-1 -5 0
-1 -12 0
-1 -19 0
-8 -5 0
-8 -12 0
-8 -19 0
-15 -5 0
-15 -12 0
-15 -19 0
-1 -7 0
-1 -14 0
-1 -21 0
-8 -7 0
-8 -14 0
-8 -21 0
-15 -7 0
-15 -14 0
-15 -21 0
-2 -5 0
-2 -12 0
-2 -19 0
-9 -5 0
-9 -12 0
-9 -19 0
-16 -5 0
-16 -12 0
-16 -19 0
-2 -6 0
-2 -13 0
-2 -20 0
-9 -6 0
-9 -13 0
-9 -20 0
-16 -6 0
-16 -13 0
-16 -20 0
-4 -5 0
-4 -12 0
-4 -19 0
-11 -5 0
-11 -12 0
-11 -19 0
-18 -5 0
-18 -12 0
-18 -19 0
-4 -6 0
-4 -13 0
-4 -20 0
-11 -6 0
-11 -13 0
-11 -20 0
-18 -6 0
-18 -13 0
-18 -20 0
-4 -7 0
-4 -14 0
-4 -21 0
-11 -7 0
-11 -14 0
-11 -21 0
-18 -7 0
-18 -14 0
-18 -21 0
-5 -6 0
-5 -13 0
-5 -20 0
-12 -6 0
-12 -13 0
-12 -20 0
-19 -6 0
-19 -13 0
-19 -20 0
-5 -7 0
-5 -14 0
-5 -21 0
-12 -7 0
-12 -14 0
-12 -21 0
-19 -7 0
-19 -14 0
-19 -21 0
-6 -7 0
-6 -14 0
-6 -21 0
-13 -7 0
-13 -14 0
-13 -21 0
-20 -7 0
-20 -14 0
-20 -21 0
-1 -2 0
-1 -4 0
-1 -6 0
-2 -3 0
-2 -4 0
-2 -7 0
-3 -4 0
-3 -5 0
-3 -6 0
-3 -7 0
-8 -9 0
-8 -11 0
-8 -13 0
-9 -10 0
-9 -11 0
-9 -14 0
-10 -11 0
-10 -12 0
-10 -13 0
-10 -14 0
-15 -16 0
-15 -18 0
-15 -20 0
-16 -17 0
-16 -18 0
-16 -21 0
-17 -18 0
-17 -19 0
-17 -20 0
-17 -21 0
-1 -8 0
-1 -15 0
-8 -15 0
-2 -9 0
-2 -16 0
-9 -16 0
-3 -10 0
-3 -17 0
-10 -17 0
-4 -11 0
-4 -18 0
-11 -18 0
-5 -12 0
-5 -19 0
-12 -19 0
-6 -13 0
-6 -20 0
-13 -20 0
-7 -14 0
-7 -21 0
-14 -21 0
